# Solution for model r5_t18_m2_8 Batch Number: 2
# Finished Task: 10 / 18
# Makespan: 414.0, Total Distance: 311.0, Total Time: 1.0247
# R O S F Batch
0 0 20 0.0 0.0 -1
1 1 11 0.0 0.0 -1
2 2 10 0.0 0.0 -1
3 3 -1 0.0 0.0 -1
4 4 -1 0.0 0.0 -1
5 0 15 334.0 369.0 1
6 -1 -1 -1.0 -1.0 0
7 1 19 329.0 356.0 1
8 -1 -1 -1.0 -1.0 1
9 0 5 293.0 325.0 1
10 2 -1 157.0 177.0 0
11 1 18 87.0 125.0 0
12 -1 -1 -1.0 -1.0 0
13 -1 -1 -1.0 -1.0 1
14 -1 -1 -1.0 -1.0 1
15 0 -1 387.0 414.0 1
16 -1 -1 -1.0 -1.0 0
17 -1 -1 -1.0 -1.0 0
18 1 22 198.0 220.0 0
19 1 -1 368.0 393.0 1
20 0 9 220.0 249.0 0
21 -1 -1 -1.0 -1.0 0
22 1 7 272.0 305.0 1
